Running HiGHS 1.5.3 [date: 2023-09-11, git hash: f6918024d]
Copyright (c) 2023 HiGHS under MIT licence terms
Number of BV entries in BOUNDS section is 98
MIP  fb99b04968c14d878f18a04f26943d1f-pulp has 114 rows; 113 cols; 644 nonzeros; 100 integer variables
Presolving model
88 rows, 99 cols, 594 nonzeros
87 rows, 97 cols, 542 nonzeros
Objective function is integral with scale 1

Solving MIP model with:
   87 rows
   97 cols (82 binary, 2 integer, 1 implied int., 12 continuous)
   542 nonzeros

        Nodes      |    B&B Tree     |            Objective Bounds              |  Dynamic Constraints |       Work      
     Proc. InQueue |  Leaves   Expl. | BestBound       BestSol              Gap |   Cuts   InLp Confl. | LpIters     Time

         0       0         0   0.00%   8               inf                  inf        0      0      0         0     0.0s
         0       0         0   0.00%   8               inf                  inf        0      0      3        28     0.0s
 L       0       0         0   0.00%   11              14                21.43%     1189     47     70       512     0.1s

8.3% inactive integer columns, restarting
Model after restart has 84 rows, 86 cols (71 bin., 2 int., 1 impl., 12 cont.), and 466 nonzeros

         0       0         0   0.00%   11              14                21.43%       13      0      0       959     0.1s
         0       0         0   0.00%   11              14                21.43%       13     11      6      1003     0.1s

5.5% inactive integer columns, restarting
Model after restart has 82 rows, 82 cols (67 bin., 2 int., 1 impl., 12 cont.), and 438 nonzeros

         0       0         0   0.00%   12              14                14.29%       12      0      0      1376     0.2s
         0       0         0   0.00%   12              14                14.29%       12      7      2      1406     0.2s

2.9% inactive integer columns, restarting
Model after restart has 80 rows, 78 cols (63 bin., 2 int., 1 impl., 12 cont.), and 412 nonzeros

         0       0         0   0.00%   12              14                14.29%       17      0      0      1590     0.2s
         0       0         0   0.00%   12              14                14.29%       17     11      4      1627     0.2s

Solving report
  Status            Optimal
  Primal bound      14
  Dual bound        14
  Gap               0% (tolerance: 0.01%)
  Solution status   feasible
                    14 (objective)
                    0 (bound viol.)
                    5.3290705182e-15 (int. viol.)
                    0 (row viol.)
  Timing            0.24 (total)
                    0.01 (presolve)
                    0.00 (postsolve)
  Nodes             29
  LP iterations     2516 (total)
                    105 (strong br.)
                    815 (separation)
                    1101 (heuristics)
Writing the solution to /tmp/fb99b04968c14d878f18a04f26943d1f-pulp.sol
Running HiGHS 1.5.3 [date: 2023-09-11, git hash: f6918024d]
Copyright (c) 2023 HiGHS under MIT licence terms
Number of BV entries in BOUNDS section is 32
MIP  e92390c75e6c48f3a81e7c3beca84169-pulp has 45 rows; 41 cols; 182 nonzeros; 34 integer variables
Presolving model
31 rows, 30 cols, 138 nonzeros
25 rows, 22 cols, 99 nonzeros
6 rows, 6 cols, 12 nonzeros
3 rows, 4 cols, 6 nonzeros
3 rows, 3 cols, 6 nonzeros
Objective function is integral with scale 1

Solving MIP model with:
   3 rows
   3 cols (0 binary, 0 integer, 0 implied int., 3 continuous)
   6 nonzeros

        Nodes      |    B&B Tree     |            Objective Bounds              |  Dynamic Constraints |       Work      
     Proc. InQueue |  Leaves   Expl. | BestBound       BestSol              Gap |   Cuts   InLp Confl. | LpIters     Time

         0       0         0   0.00%   206             inf                  inf        0      0      0         0     0.0s

Solving report
  Status            Optimal
  Primal bound      206
  Dual bound        206
  Gap               0% (tolerance: 0.01%)
  Solution status   feasible
                    206 (objective)
                    0 (bound viol.)
                    0 (int. viol.)
                    0 (row viol.)
  Timing            0.00 (total)
                    0.00 (presolve)
                    0.00 (postsolve)
  Nodes             1
  LP iterations     0 (total)
                    0 (strong br.)
                    0 (separation)
                    0 (heuristics)
Writing the solution to /tmp/e92390c75e6c48f3a81e7c3beca84169-pulp.sol
Running HiGHS 1.5.3 [date: 2023-09-11, git hash: f6918024d]
Copyright (c) 2023 HiGHS under MIT licence terms
Number of BV entries in BOUNDS section is 486
MIP  50046532f9444dd793ec1e3280ed60ff-pulp has 524 rows; 541 cols; 3336 nonzeros; 492 integer variables
Presolving model
422 rows, 487 cols, 3138 nonzeros
422 rows, 487 cols, 2994 nonzeros
Objective function is integral with scale 1

Solving MIP model with:
   422 rows
   487 cols (432 binary, 6 integer, 1 implied int., 48 continuous)
   2994 nonzeros

        Nodes      |    B&B Tree     |            Objective Bounds              |  Dynamic Constraints |       Work      
     Proc. InQueue |  Leaves   Expl. | BestBound       BestSol              Gap |   Cuts   InLp Confl. | LpIters     Time

         0       0         0   0.00%   322             inf                  inf        0      0      0         0     0.0s
 R       0       0         0   0.00%   322             326                1.23%        0      0      0       130     0.0s
 C       0       0         0   0.00%   322             322                0.00%      161     14      6       174     0.1s

Solving report
  Status            Optimal
  Primal bound      322
  Dual bound        322
  Gap               0% (tolerance: 0.01%)
  Solution status   feasible
                    322 (objective)
                    0 (bound viol.)
                    0 (int. viol.)
                    0 (row viol.)
  Timing            0.05 (total)
                    0.03 (presolve)
                    0.00 (postsolve)
  Nodes             1
  LP iterations     174 (total)
                    0 (strong br.)
                    44 (separation)
                    0 (heuristics)
Writing the solution to /tmp/50046532f9444dd793ec1e3280ed60ff-pulp.sol
Running HiGHS 1.5.3 [date: 2023-09-11, git hash: f6918024d]
Copyright (c) 2023 HiGHS under MIT licence terms
Number of BV entries in BOUNDS section is 1944
MIP  6169828ebc2c4dc09b336599c235bd3c-pulp has 1991 rows; 2053 cols; 14406 nonzeros; 1950 integer variables
Presolving model
1781 rows, 1945 cols, 13992 nonzeros
1781 rows, 1945 cols, 13536 nonzeros
Objective function is integral with scale 1

Solving MIP model with:
   1781 rows
   1945 cols (1836 binary, 6 integer, 1 implied int., 102 continuous)
   13536 nonzeros

        Nodes      |    B&B Tree     |            Objective Bounds              |  Dynamic Constraints |       Work      
     Proc. InQueue |  Leaves   Expl. | BestBound       BestSol              Gap |   Cuts   InLp Confl. | LpIters     Time

         0       0         0   0.00%   167             inf                  inf        0      0      0         0     0.1s
         0       0         0   0.00%   167             inf                  inf        0      0      5       330     0.1s
 L       0       0         0   0.00%   167             178                6.18%      647     59    271      1375     1.0s

Symmetry detection completed in 0.0s
Found 3 generators

 L       0       0         0   0.00%   167             167                0.00%      606     25    271      2601     1.3s

Solving report
  Status            Optimal
  Primal bound      167
  Dual bound        167
  Gap               0% (tolerance: 0.01%)
  Solution status   feasible
                    167 (objective)
                    0 (bound viol.)
                    1.42108547152e-13 (int. viol.)
                    0 (row viol.)
  Timing            1.34 (total)
                    0.11 (presolve)
                    0.00 (postsolve)
  Nodes             1
  LP iterations     3246 (total)
                    0 (strong br.)
                    1056 (separation)
                    1860 (heuristics)
Writing the solution to /tmp/6169828ebc2c4dc09b336599c235bd3c-pulp.sol
Running HiGHS 1.5.3 [date: 2023-09-11, git hash: f6918024d]
Copyright (c) 2023 HiGHS under MIT licence terms
Number of BV entries in BOUNDS section is 98
MIP  3ab01e5822cc4ebda06e41274a067ec7-pulp has 114 rows; 113 cols; 644 nonzeros; 100 integer variables
Presolving model
88 rows, 99 cols, 594 nonzeros
87 rows, 97 cols, 542 nonzeros
Objective function is integral with scale 1

Solving MIP model with:
   87 rows
   97 cols (82 binary, 2 integer, 1 implied int., 12 continuous)
   542 nonzeros

        Nodes      |    B&B Tree     |            Objective Bounds              |  Dynamic Constraints |       Work      
     Proc. InQueue |  Leaves   Expl. | BestBound       BestSol              Gap |   Cuts   InLp Confl. | LpIters     Time

         0       0         0   0.00%   8               inf                  inf        0      0      0         0     0.0s
         0       0         0   0.00%   8               inf                  inf        0      0      3        28     0.0s
 L       0       0         0   0.00%   11              14                21.43%     1189     47     70       512     0.1s

8.3% inactive integer columns, restarting
Model after restart has 84 rows, 86 cols (71 bin., 2 int., 1 impl., 12 cont.), and 466 nonzeros

         0       0         0   0.00%   11              14                21.43%       13      0      0       959     0.1s
         0       0         0   0.00%   11              14                21.43%       13     11      6      1003     0.1s

5.5% inactive integer columns, restarting
Model after restart has 82 rows, 82 cols (67 bin., 2 int., 1 impl., 12 cont.), and 438 nonzeros

         0       0         0   0.00%   12              14                14.29%       12      0      0      1376     0.2s
         0       0         0   0.00%   12              14                14.29%       12      7      2      1406     0.2s

2.9% inactive integer columns, restarting
Model after restart has 80 rows, 78 cols (63 bin., 2 int., 1 impl., 12 cont.), and 412 nonzeros

         0       0         0   0.00%   12              14                14.29%       17      0      0      1590     0.2s
         0       0         0   0.00%   12              14                14.29%       17     11      4      1627     0.2s

Solving report
  Status            Optimal
  Primal bound      14
  Dual bound        14
  Gap               0% (tolerance: 0.01%)
  Solution status   feasible
                    14 (objective)
                    0 (bound viol.)
                    5.3290705182e-15 (int. viol.)
                    0 (row viol.)
  Timing            0.30 (total)
                    0.02 (presolve)
                    0.00 (postsolve)
  Nodes             29
  LP iterations     2516 (total)
                    105 (strong br.)
                    815 (separation)
                    1101 (heuristics)
Writing the solution to /tmp/3ab01e5822cc4ebda06e41274a067ec7-pulp.sol
Running HiGHS 1.5.3 [date: 2023-09-11, git hash: f6918024d]
Copyright (c) 2023 HiGHS under MIT licence terms
Number of BV entries in BOUNDS section is 98
MIP  22bf068fa82c4824931c1b85c90657e0-pulp has 114 rows; 113 cols; 644 nonzeros; 100 integer variables
Presolving model
88 rows, 99 cols, 594 nonzeros
87 rows, 97 cols, 542 nonzeros
Objective function is integral with scale 1

Solving MIP model with:
   87 rows
   97 cols (82 binary, 2 integer, 1 implied int., 12 continuous)
   542 nonzeros

        Nodes      |    B&B Tree     |            Objective Bounds              |  Dynamic Constraints |       Work      
     Proc. InQueue |  Leaves   Expl. | BestBound       BestSol              Gap |   Cuts   InLp Confl. | LpIters     Time

         0       0         0   0.00%   8               inf                  inf        0      0      0         0     0.0s
         0       0         0   0.00%   8               inf                  inf        0      0      3        28     0.0s
 L       0       0         0   0.00%   11              14                21.43%     1189     47     70       512     0.1s

8.3% inactive integer columns, restarting
Model after restart has 84 rows, 86 cols (71 bin., 2 int., 1 impl., 12 cont.), and 466 nonzeros

         0       0         0   0.00%   11              14                21.43%       13      0      0       959     0.1s
         0       0         0   0.00%   11              14                21.43%       13     11      6      1003     0.1s

5.5% inactive integer columns, restarting
Model after restart has 82 rows, 82 cols (67 bin., 2 int., 1 impl., 12 cont.), and 438 nonzeros

         0       0         0   0.00%   12              14                14.29%       12      0      0      1376     0.2s
         0       0         0   0.00%   12              14                14.29%       12      7      2      1406     0.2s

2.9% inactive integer columns, restarting
Model after restart has 80 rows, 78 cols (63 bin., 2 int., 1 impl., 12 cont.), and 412 nonzeros

         0       0         0   0.00%   12              14                14.29%       17      0      0      1590     0.2s
         0       0         0   0.00%   12              14                14.29%       17     11      4      1627     0.2s

Solving report
  Status            Optimal
  Primal bound      14
  Dual bound        14
  Gap               0% (tolerance: 0.01%)
  Solution status   feasible
                    14 (objective)
                    0 (bound viol.)
                    5.3290705182e-15 (int. viol.)
                    0 (row viol.)
  Timing            0.25 (total)
                    0.01 (presolve)
                    0.00 (postsolve)
  Nodes             29
  LP iterations     2516 (total)
                    105 (strong br.)
                    815 (separation)
                    1101 (heuristics)
Writing the solution to /tmp/22bf068fa82c4824931c1b85c90657e0-pulp.sol
Running HiGHS 1.5.3 [date: 2023-09-11, git hash: f6918024d]
Copyright (c) 2023 HiGHS under MIT licence terms
Number of BV entries in BOUNDS section is 46080
MIP  0dcd4e00f3f14d2c8cef58e753abc96b-pulp has 46227 rows; 47041 cols; 358180 nonzeros; 46100 integer variables
Presolving model
44327 rows, 46081 cols, 354400 nonzeros
44327 rows, 46081 cols, 349180 nonzeros
Objective function is integral with scale 1

Solving MIP model with:
   44327 rows
   46081 cols (45120 binary, 20 integer, 1 implied int., 940 continuous)
   349180 nonzeros

        Nodes      |    B&B Tree     |            Objective Bounds              |  Dynamic Constraints |       Work      
     Proc. InQueue |  Leaves   Expl. | BestBound       BestSol              Gap |   Cuts   InLp Confl. | LpIters     Time

         0       0         0   0.00%   286             inf                  inf        0      0      0         0     2.0s
         0       0         0   0.00%   286             inf                  inf        0      0      4      4295     4.9s
         0       0         0   0.00%   286             inf                  inf      447     70    167      7063    10.3s
         0       0         0   0.00%   286             inf                  inf      645    116    180     11313    15.5s
         0       0         0   0.00%   286             inf                  inf      939    114    204     14825    20.5s
         0       0         0   0.00%   286             inf                  inf     1096    139    221     20149    27.0s
         0       0         0   0.00%   286             inf                  inf     1239    187    233     24344    32.3s
         0       0         0   0.00%   286             inf                  inf     1387    212    243     28030    37.9s
 L       0       0         0   0.00%   286             297                3.70%     1430    168    248     29714    72.3s

Symmetry detection completed in 0.6s
Found 15 generators

 L       0       0         0   0.00%   286             286                0.00%     1369     67    248     38395   103.4s

Solving report
  Status            Optimal
  Primal bound      286
  Dual bound        286
  Gap               0% (tolerance: 0.01%)
  Solution status   feasible
                    286 (objective)
                    0 (bound viol.)
                    0 (int. viol.)
                    0 (row viol.)
  Timing            103.43 (total)
                    1.83 (presolve)
                    0.00 (postsolve)
  Nodes             1
  LP iterations     39948 (total)
                    0 (strong br.)
                    26239 (separation)
                    9414 (heuristics)
Writing the solution to /tmp/0dcd4e00f3f14d2c8cef58e753abc96b-pulp.sol
Running HiGHS 1.5.3 [date: 2023-09-11, git hash: f6918024d]
Copyright (c) 2023 HiGHS under MIT licence terms
Number of BV entries in BOUNDS section is 98
MIP  06cca9d0b7714f6ca55bfff8d7c2f43c-pulp has 114 rows; 113 cols; 644 nonzeros; 100 integer variables
Presolving model
88 rows, 99 cols, 594 nonzeros
87 rows, 97 cols, 542 nonzeros
Objective function is integral with scale 1

Solving MIP model with:
   87 rows
   97 cols (82 binary, 2 integer, 1 implied int., 12 continuous)
   542 nonzeros

        Nodes      |    B&B Tree     |            Objective Bounds              |  Dynamic Constraints |       Work      
     Proc. InQueue |  Leaves   Expl. | BestBound       BestSol              Gap |   Cuts   InLp Confl. | LpIters     Time

         0       0         0   0.00%   8               inf                  inf        0      0      0         0     0.0s
         0       0         0   0.00%   8               inf                  inf        0      0      3        28     0.0s
 L       0       0         0   0.00%   11              14                21.43%     1189     47     70       512     0.1s

8.3% inactive integer columns, restarting
Model after restart has 84 rows, 86 cols (71 bin., 2 int., 1 impl., 12 cont.), and 466 nonzeros

         0       0         0   0.00%   11              14                21.43%       13      0      0       959     0.1s
         0       0         0   0.00%   11              14                21.43%       13     11      6      1003     0.1s

5.5% inactive integer columns, restarting
Model after restart has 82 rows, 82 cols (67 bin., 2 int., 1 impl., 12 cont.), and 438 nonzeros

         0       0         0   0.00%   12              14                14.29%       12      0      0      1376     0.2s
         0       0         0   0.00%   12              14                14.29%       12      7      2      1406     0.2s

2.9% inactive integer columns, restarting
Model after restart has 80 rows, 78 cols (63 bin., 2 int., 1 impl., 12 cont.), and 412 nonzeros

         0       0         0   0.00%   12              14                14.29%       17      0      0      1590     0.2s
         0       0         0   0.00%   12              14                14.29%       17     11      4      1627     0.2s

Solving report
  Status            Optimal
  Primal bound      14
  Dual bound        14
  Gap               0% (tolerance: 0.01%)
  Solution status   feasible
                    14 (objective)
                    0 (bound viol.)
                    5.3290705182e-15 (int. viol.)
                    0 (row viol.)
  Timing            0.25 (total)
                    0.01 (presolve)
                    0.00 (postsolve)
  Nodes             29
  LP iterations     2516 (total)
                    105 (strong br.)
                    815 (separation)
                    1101 (heuristics)
Writing the solution to /tmp/06cca9d0b7714f6ca55bfff8d7c2f43c-pulp.sol
Running HiGHS 1.5.3 [date: 2023-09-11, git hash: f6918024d]
Copyright (c) 2023 HiGHS under MIT licence terms
Number of BV entries in BOUNDS section is 1944
MIP  ed5f38618a854e5f81d7cd158e52f047-pulp has 1991 rows; 2053 cols; 14406 nonzeros; 1950 integer variables
Presolving model
1781 rows, 1945 cols, 13992 nonzeros
1781 rows, 1945 cols, 13536 nonzeros
Objective function is integral with scale 1

Solving MIP model with:
   1781 rows
   1945 cols (1836 binary, 6 integer, 1 implied int., 102 continuous)
   13536 nonzeros

        Nodes      |    B&B Tree     |            Objective Bounds              |  Dynamic Constraints |       Work      
     Proc. InQueue |  Leaves   Expl. | BestBound       BestSol              Gap |   Cuts   InLp Confl. | LpIters     Time

         0       0         0   0.00%   167             inf                  inf        0      0      0         0     0.1s
         0       0         0   0.00%   167             inf                  inf        0      0      5       330     0.1s
 L       0       0         0   0.00%   167             178                6.18%      647     59    271      1375     1.0s

Symmetry detection completed in 0.0s
Found 3 generators

 L       0       0         0   0.00%   167             167                0.00%      606     25    271      2601     1.4s

Solving report
  Status            Optimal
  Primal bound      167
  Dual bound        167
  Gap               0% (tolerance: 0.01%)
  Solution status   feasible
                    167 (objective)
                    0 (bound viol.)
                    1.42108547152e-13 (int. viol.)
                    0 (row viol.)
  Timing            1.38 (total)
                    0.12 (presolve)
                    0.00 (postsolve)
  Nodes             1
  LP iterations     3246 (total)
                    0 (strong br.)
                    1056 (separation)
                    1860 (heuristics)
Writing the solution to /tmp/ed5f38618a854e5f81d7cd158e52f047-pulp.sol
